
Gurobi 9.1.2 (linux64, gurobi_cl) logging started Fri Jul 30 13:51:56 2021

Using license file /opt/gurobi/gurobi.lic
Set parameter TimeLimit to value 600
Set parameter LogFile to value 912-glass4-0.log

Gurobi Optimizer version 9.1.2 build v9.1.2rc0 (linux64)
Copyright (c) 2021, Gurobi Optimization, LLC

Read MPS format model from file /nfs/models/mip/glass4.mps.bz2
Reading time = 0.11 seconds
glass4: 396 rows, 322 columns, 1815 nonzeros
Thread count: 4 physical cores, 8 logical processors, using up to 8 threads
Optimize a model with 396 rows, 322 columns and 1815 nonzeros
Model fingerprint: 0x0a9d9037
Variable types: 20 continuous, 302 integer (0 binary)
Coefficient statistics:
  Matrix range     [1e+00, 8e+06]
  Objective range  [1e+00, 1e+06]
  Bounds range     [1e+00, 8e+02]
  RHS range        [1e+00, 8e+06]
Presolve removed 6 rows and 6 columns
Presolve time: 0.00s
Presolved: 390 rows, 316 columns, 1803 nonzeros
Variable types: 19 continuous, 297 integer (297 binary)
Found heuristic solution: objective 3.133356e+09

Root relaxation: objective 8.000024e+08, 72 iterations, 0.00 seconds

    Nodes    |    Current Node    |     Objective Bounds      |     Work
 Expl Unexpl |  Obj  Depth IntInf | Incumbent    BestBd   Gap | It/Node Time

     0     0 8.0000e+08    0   72 3.1334e+09 8.0000e+08  74.5%     -    0s
H    0     0                    2.200019e+09 8.0000e+08  63.6%     -    0s
H    0     0                    2.000016e+09 8.0000e+08  60.0%     -    0s
     0     0 8.0000e+08    0   72 2.0000e+09 8.0000e+08  60.0%     -    0s
     0     0 8.0000e+08    0   81 2.0000e+09 8.0000e+08  60.0%     -    0s
H    0     0                    2.000016e+09 8.0000e+08  60.0%     -    0s
     0     0 8.0000e+08    0   79 2.0000e+09 8.0000e+08  60.0%     -    0s
     0     2 8.0000e+08    0   78 2.0000e+09 8.0000e+08  60.0%     -    0s
H  220   496                    1.900016e+09 8.0000e+08  57.9%   8.0    0s
H  550   551                    1.825015e+09 8.0000e+08  56.2%   6.1    0s
H  616   533                    1.800015e+09 8.0000e+08  55.6%   6.6    0s
H 1113   870                    1.800015e+09 8.0000e+08  55.6%   6.7    0s
H 1184   877                    1.650015e+09 8.0000e+08  51.5%   6.6    0s
 29590 16931 1.2000e+09   59  107 1.6500e+09 8.4133e+08  49.0%   3.9    5s
 29785 17067 1.2600e+09   66   96 1.6500e+09 8.8281e+08  46.5%   4.1   10s
 29986 17212 1.5267e+09   68  108 1.6500e+09 8.8832e+08  46.2%   4.4   15s
 30173 17343 1.6000e+09   62  101 1.6500e+09 8.9731e+08  45.6%   4.6   20s
H32606 17433                    1.600014e+09 9.0001e+08  43.8%   5.1   23s
H39867 18730                    1.600014e+09 9.0001e+08  43.8%   5.6   24s
 40414 18935 infeasible  300      1.6000e+09 9.0001e+08  43.8%   5.7   25s
*88103 24507             320    1.550013e+09 1.0000e+09  35.5%   6.4   28s
*90114 23332             321    1.500016e+09 1.0000e+09  33.3%   6.5   28s
*90116 23326             322    1.500015e+09 1.0000e+09  33.3%   6.5   28s
*96722 26260             328    1.500015e+09 1.0000e+09  33.3%   6.5   28s
*102090 28803             341    1.500015e+09 1.0000e+09  33.3%   6.6   29s
 117314 33602 infeasible  294      1.5000e+09 1.0500e+09  30.0%   6.6   30s
*126159 36303             318    1.500013e+09 1.0833e+09  27.8%   6.6   30s
*126162 20765             319    1.400013e+09 1.0833e+09  22.6%   6.6   30s
*135816 24727             317    1.400013e+09 1.1000e+09  21.4%   6.9   31s
*143242 24430             315    1.400013e+09 1.1000e+09  21.4%   6.9   31s
 177203 30607 infeasible  298      1.4000e+09 1.2000e+09  14.3%   7.4   35s
*179680 30531             319    1.400013e+09 1.2000e+09  14.3%   7.4   35s
*187499 14704             320    1.350013e+09 1.2000e+09  11.1%   7.3   35s
H187961  3679                    1.200013e+09 1.2000e+09  0.00%   7.3   35s

Cutting planes:
  Gomory: 13
  Implied bound: 6
  Projected implied bound: 2
  Clique: 1
  MIR: 13
  Flow cover: 27
  RLT: 11
  Relax-and-lift: 8

Explored 188145 nodes (1383139 simplex iterations) in 35.66 seconds
Thread count was 8 (of 8 available processors)

Solution count 10: 1.20001e+09 1.35001e+09 1.40001e+09 ... 1.50002e+09

Optimal solution found (tolerance 1.00e-04)
Best objective 1.200012600000e+09, best bound 1.200007800000e+09, gap 0.0004%
